p edge 851 1570
e 1 15 1
e 1 2 1
e 2 16 1
e 2 3 1
e 3 17 1
e 3 4 1
e 4 18 1
e 4 5 1
e 5 19 1
e 5 6 1
e 6 20 1
e 6 7 1
e 7 21 1
e 7 8 1
e 8 22 1
e 8 9 1
e 9 23 1
e 9 10 1
e 10 24 1
e 10 11 1
e 11 25 1
e 11 12 1
e 12 26 1
e 12 13 1
e 13 27 1
e 13 14 1
e 14 28 1
e 15 36 1
e 15 16 1
e 16 37 1
e 16 17 1
e 17 38 1
e 17 18 1
e 18 39 1
e 18 19 1
e 19 40 1
e 19 20 1
e 20 41 1
e 20 21 1
e 21 42 1
e 21 22 1
e 22 43 1
e 22 23 1
e 23 44 1
e 23 24 1
e 24 45 1
e 24 25 1
e 25 46 1
e 25 26 1
e 26 47 1
e 26 27 1
e 27 48 1
e 27 28 1
e 28 49 1
e 28 29 1
e 29 50 1
e 29 30 1
e 30 51 1
e 30 31 1
e 31 52 1
e 31 32 1
e 32 53 1
e 32 33 1
e 33 54 1
e 33 34 1
e 34 55 1
e 35 36 1
e 36 56 1
e 36 37 1
e 37 57 1
e 37 38 1
e 38 58 1
e 38 39 1
e 39 59 1
e 39 40 1
e 40 60 1
e 40 41 1
e 41 61 1
e 41 42 1
e 42 62 1
e 42 43 1
e 43 63 1
e 43 44 1
e 44 64 1
e 44 45 1
e 45 65 1
e 45 46 1
e 46 66 1
e 46 47 1
e 47 67 1
e 47 48 1
e 48 68 1
e 48 49 1
e 49 69 1
e 49 50 1
e 50 70 1
e 50 51 1
e 51 71 1
e 51 52 1
e 52 72 1
e 52 53 1
e 53 73 1
e 53 54 1
e 54 74 1
e 54 55 1
e 55 75 1
e 56 76 1
e 56 57 1
e 57 77 1
e 57 58 1
e 58 78 1
e 58 59 1
e 59 79 1
e 59 60 1
e 60 80 1
e 60 61 1
e 61 81 1
e 61 62 1
e 62 82 1
e 62 63 1
e 63 83 1
e 63 64 1
e 64 84 1
e 64 65 1
e 65 85 1
e 65 66 1
e 66 86 1
e 66 67 1
e 67 87 1
e 67 68 1
e 68 88 1
e 68 69 1
e 69 89 1
e 69 70 1
e 70 90 1
e 70 71 1
e 71 91 1
e 71 72 1
e 72 92 1
e 72 73 1
e 73 93 1
e 73 74 1
e 74 94 1
e 74 75 1
e 75 95 1
e 76 96 1
e 76 77 1
e 77 97 1
e 77 78 1
e 78 98 1
e 78 79 1
e 79 99 1
e 79 80 1
e 80 100 1
e 80 81 1
e 81 101 1
e 81 82 1
e 82 102 1
e 82 83 1
e 83 103 1
e 83 84 1
e 84 104 1
e 84 85 1
e 85 105 1
e 85 86 1
e 86 106 1
e 86 87 1
e 87 107 1
e 87 88 1
e 88 108 1
e 88 89 1
e 89 109 1
e 89 90 1
e 90 110 1
e 90 91 1
e 91 111 1
e 91 92 1
e 92 112 1
e 92 93 1
e 93 113 1
e 93 94 1
e 94 114 1
e 94 95 1
e 95 115 1
e 96 117 1
e 96 97 1
e 97 118 1
e 97 98 1
e 98 119 1
e 98 99 1
e 99 120 1
e 99 100 1
e 100 121 1
e 100 101 1
e 101 122 1
e 101 102 1
e 102 123 1
e 102 103 1
e 103 124 1
e 103 104 1
e 104 125 1
e 104 105 1
e 105 126 1
e 105 106 1
e 106 127 1
e 106 107 1
e 107 128 1
e 107 108 1
e 108 129 1
e 108 109 1
e 109 130 1
e 109 110 1
e 110 131 1
e 110 111 1
e 111 132 1
e 111 112 1
e 112 133 1
e 112 113 1
e 113 134 1
e 113 114 1
e 114 135 1
e 114 115 1
e 115 136 1
e 115 116 1
e 116 137 1
e 117 138 1
e 117 118 1
e 118 139 1
e 118 119 1
e 119 140 1
e 119 120 1
e 120 141 1
e 120 121 1
e 121 142 1
e 121 122 1
e 122 143 1
e 122 123 1
e 123 144 1
e 123 124 1
e 124 145 1
e 124 125 1
e 125 146 1
e 125 126 1
e 126 147 1
e 126 127 1
e 127 148 1
e 127 128 1
e 128 149 1
e 128 129 1
e 129 150 1
e 129 130 1
e 130 151 1
e 130 131 1
e 131 152 1
e 131 132 1
e 132 153 1
e 132 133 1
e 133 154 1
e 133 134 1
e 134 155 1
e 134 135 1
e 135 156 1
e 135 136 1
e 136 157 1
e 136 137 1
e 137 158 1
e 138 159 1
e 138 139 1
e 139 160 1
e 139 140 1
e 140 161 1
e 140 141 1
e 141 162 1
e 141 142 1
e 142 163 1
e 142 143 1
e 143 164 1
e 143 144 1
e 144 165 1
e 144 145 1
e 145 146 1
e 146 147 1
e 147 148 1
e 148 149 1
e 149 166 1
e 149 150 1
e 150 167 1
e 150 151 1
e 151 168 1
e 151 152 1
e 152 169 1
e 152 153 1
e 153 170 1
e 153 154 1
e 154 171 1
e 154 155 1
e 155 172 1
e 155 156 1
e 156 173 1
e 156 157 1
e 157 174 1
e 157 158 1
e 158 175 1
e 159 176 1
e 159 160 1
e 160 177 1
e 160 161 1
e 161 178 1
e 161 162 1
e 162 179 1
e 162 163 1
e 163 180 1
e 163 164 1
e 164 181 1
e 164 165 1
e 165 182 1
e 166 183 1
e 166 167 1
e 167 184 1
e 167 168 1
e 168 185 1
e 168 169 1
e 169 186 1
e 169 170 1
e 170 187 1
e 170 171 1
e 171 188 1
e 171 172 1
e 172 189 1
e 172 173 1
e 173 190 1
e 173 174 1
e 174 191 1
e 174 175 1
e 175 192 1
e 176 195 1
e 176 177 1
e 177 196 1
e 177 178 1
e 178 197 1
e 178 179 1
e 179 198 1
e 179 180 1
e 180 199 1
e 180 181 1
e 181 200 1
e 181 182 1
e 182 201 1
e 183 202 1
e 183 184 1
e 184 203 1
e 184 185 1
e 185 204 1
e 185 186 1
e 186 205 1
e 186 187 1
e 187 206 1
e 187 188 1
e 188 207 1
e 188 189 1
e 189 208 1
e 189 190 1
e 190 209 1
e 190 191 1
e 191 210 1
e 191 192 1
e 192 211 1
e 192 193 1
e 193 212 1
e 193 194 1
e 194 213 1
e 195 214 1
e 195 196 1
e 196 215 1
e 196 197 1
e 197 216 1
e 197 198 1
e 198 217 1
e 198 199 1
e 199 218 1
e 199 200 1
e 200 219 1
e 200 201 1
e 201 220 1
e 202 225 1
e 202 203 1
e 203 226 1
e 203 204 1
e 204 227 1
e 204 205 1
e 205 228 1
e 205 206 1
e 206 229 1
e 206 207 1
e 207 230 1
e 207 208 1
e 208 231 1
e 208 209 1
e 209 232 1
e 209 210 1
e 210 233 1
e 210 211 1
e 211 234 1
e 211 212 1
e 212 235 1
e 212 213 1
e 213 236 1
e 214 237 1
e 214 215 1
e 215 238 1
e 215 216 1
e 216 239 1
e 216 217 1
e 217 240 1
e 217 218 1
e 218 241 1
e 218 219 1
e 219 242 1
e 219 220 1
e 220 243 1
e 220 221 1
e 221 244 1
e 221 222 1
e 222 245 1
e 222 223 1
e 223 246 1
e 223 224 1
e 224 247 1
e 224 225 1
e 225 248 1
e 225 226 1
e 226 249 1
e 226 227 1
e 227 250 1
e 227 228 1
e 228 251 1
e 228 229 1
e 229 252 1
e 229 230 1
e 230 253 1
e 230 231 1
e 231 254 1
e 231 232 1
e 232 255 1
e 232 233 1
e 233 256 1
e 233 234 1
e 234 257 1
e 234 235 1
e 235 236 1
e 237 238 1
e 238 258 1
e 238 239 1
e 239 259 1
e 239 240 1
e 240 260 1
e 240 241 1
e 241 261 1
e 241 242 1
e 242 262 1
e 242 243 1
e 243 263 1
e 243 244 1
e 244 264 1
e 244 245 1
e 245 265 1
e 245 246 1
e 246 266 1
e 246 247 1
e 247 267 1
e 247 248 1
e 248 268 1
e 248 249 1
e 249 269 1
e 249 250 1
e 250 270 1
e 250 251 1
e 251 271 1
e 251 252 1
e 252 272 1
e 252 253 1
e 253 273 1
e 253 254 1
e 254 274 1
e 254 255 1
e 255 275 1
e 255 256 1
e 256 276 1
e 256 257 1
e 257 277 1
e 258 278 1
e 258 259 1
e 259 279 1
e 259 260 1
e 260 280 1
e 260 261 1
e 261 281 1
e 261 262 1
e 262 282 1
e 262 263 1
e 263 283 1
e 263 264 1
e 264 284 1
e 264 265 1
e 265 285 1
e 265 266 1
e 266 286 1
e 266 267 1
e 267 287 1
e 267 268 1
e 268 288 1
e 268 269 1
e 269 289 1
e 269 270 1
e 270 290 1
e 270 271 1
e 271 291 1
e 271 272 1
e 272 292 1
e 272 273 1
e 273 293 1
e 273 274 1
e 274 294 1
e 274 275 1
e 275 295 1
e 275 276 1
e 276 296 1
e 276 277 1
e 277 297 1
e 278 299 1
e 278 279 1
e 279 300 1
e 279 280 1
e 280 301 1
e 280 281 1
e 281 302 1
e 281 282 1
e 282 303 1
e 282 283 1
e 283 304 1
e 283 284 1
e 284 305 1
e 284 285 1
e 285 306 1
e 285 286 1
e 286 307 1
e 286 287 1
e 287 308 1
e 287 288 1
e 288 309 1
e 288 289 1
e 289 310 1
e 289 290 1
e 290 311 1
e 290 291 1
e 291 312 1
e 291 292 1
e 292 313 1
e 292 293 1
e 293 314 1
e 293 294 1
e 294 315 1
e 294 295 1
e 295 316 1
e 295 296 1
e 296 317 1
e 296 297 1
e 297 318 1
e 298 319 1
e 298 299 1
e 299 320 1
e 299 300 1
e 300 321 1
e 300 301 1
e 301 322 1
e 301 302 1
e 302 323 1
e 302 303 1
e 303 324 1
e 303 304 1
e 304 325 1
e 304 305 1
e 305 326 1
e 305 306 1
e 306 327 1
e 306 307 1
e 307 328 1
e 307 308 1
e 308 329 1
e 308 309 1
e 309 330 1
e 309 310 1
e 310 331 1
e 310 311 1
e 311 332 1
e 311 312 1
e 312 333 1
e 312 313 1
e 313 334 1
e 313 314 1
e 314 335 1
e 314 315 1
e 315 336 1
e 315 316 1
e 316 337 1
e 316 317 1
e 317 338 1
e 317 318 1
e 318 339 1
e 319 352 1
e 319 320 1
e 320 353 1
e 320 321 1
e 321 354 1
e 321 322 1
e 322 355 1
e 322 323 1
e 323 356 1
e 323 324 1
e 324 357 1
e 324 325 1
e 325 358 1
e 325 326 1
e 326 359 1
e 326 327 1
e 327 360 1
e 327 328 1
e 328 361 1
e 328 329 1
e 329 362 1
e 329 330 1
e 330 363 1
e 330 331 1
e 331 364 1
e 331 332 1
e 332 365 1
e 332 333 1
e 333 366 1
e 333 334 1
e 334 367 1
e 334 335 1
e 335 368 1
e 335 336 1
e 336 369 1
e 336 337 1
e 337 370 1
e 337 338 1
e 338 371 1
e 338 339 1
e 339 372 1
e 340 375 1
e 340 341 1
e 341 376 1
e 341 342 1
e 342 377 1
e 342 343 1
e 343 378 1
e 343 344 1
e 344 379 1
e 344 345 1
e 345 380 1
e 345 346 1
e 346 381 1
e 346 347 1
e 347 382 1
e 347 348 1
e 348 383 1
e 348 349 1
e 349 384 1
e 349 350 1
e 350 385 1
e 350 351 1
e 351 386 1
e 352 353 1
e 353 388 1
e 353 354 1
e 354 389 1
e 354 355 1
e 355 390 1
e 355 356 1
e 356 391 1
e 356 357 1
e 357 392 1
e 357 358 1
e 358 393 1
e 358 359 1
e 359 394 1
e 359 360 1
e 360 395 1
e 360 361 1
e 361 396 1
e 361 362 1
e 362 397 1
e 362 363 1
e 363 398 1
e 363 364 1
e 364 399 1
e 364 365 1
e 365 400 1
e 365 366 1
e 366 401 1
e 366 367 1
e 367 402 1
e 367 368 1
e 368 403 1
e 368 369 1
e 369 404 1
e 369 370 1
e 370 405 1
e 370 371 1
e 371 406 1
e 371 372 1
e 372 407 1
e 372 373 1
e 373 408 1
e 373 374 1
e 374 409 1
e 374 375 1
e 375 410 1
e 375 376 1
e 376 411 1
e 376 377 1
e 377 412 1
e 377 378 1
e 378 413 1
e 378 379 1
e 379 414 1
e 379 380 1
e 380 415 1
e 380 381 1
e 381 416 1
e 381 382 1
e 382 417 1
e 382 383 1
e 383 418 1
e 383 384 1
e 384 419 1
e 384 385 1
e 385 420 1
e 385 386 1
e 386 421 1
e 386 387 1
e 387 422 1
e 388 424 1
e 388 389 1
e 389 425 1
e 389 390 1
e 390 426 1
e 390 391 1
e 391 427 1
e 391 392 1
e 392 393 1
e 393 428 1
e 393 394 1
e 394 429 1
e 394 395 1
e 395 430 1
e 395 396 1
e 396 431 1
e 396 397 1
e 397 432 1
e 397 398 1
e 398 433 1
e 398 399 1
e 399 434 1
e 399 400 1
e 400 435 1
e 400 401 1
e 401 436 1
e 401 402 1
e 402 437 1
e 402 403 1
e 403 438 1
e 403 404 1
e 404 439 1
e 404 405 1
e 405 440 1
e 405 406 1
e 406 441 1
e 406 407 1
e 407 442 1
e 407 408 1
e 408 443 1
e 408 409 1
e 409 444 1
e 409 410 1
e 410 445 1
e 410 411 1
e 411 446 1
e 411 412 1
e 412 447 1
e 412 413 1
e 413 448 1
e 413 414 1
e 414 449 1
e 414 415 1
e 415 450 1
e 415 416 1
e 416 451 1
e 416 417 1
e 417 452 1
e 417 418 1
e 418 453 1
e 418 419 1
e 419 454 1
e 419 420 1
e 420 455 1
e 420 421 1
e 421 456 1
e 421 422 1
e 422 423 1
e 424 425 1
e 425 426 1
e 426 427 1
e 428 429 1
e 429 457 1
e 429 430 1
e 430 458 1
e 430 431 1
e 431 459 1
e 431 432 1
e 432 460 1
e 432 433 1
e 433 461 1
e 433 434 1
e 434 462 1
e 434 435 1
e 435 463 1
e 435 436 1
e 436 464 1
e 436 437 1
e 437 465 1
e 437 438 1
e 438 466 1
e 438 439 1
e 439 467 1
e 439 440 1
e 440 468 1
e 440 441 1
e 441 469 1
e 441 442 1
e 442 470 1
e 442 443 1
e 443 444 1
e 444 445 1
e 445 471 1
e 445 446 1
e 446 472 1
e 446 447 1
e 447 473 1
e 447 448 1
e 448 474 1
e 448 449 1
e 449 475 1
e 449 450 1
e 450 476 1
e 450 451 1
e 451 477 1
e 451 452 1
e 452 478 1
e 452 453 1
e 453 479 1
e 453 454 1
e 454 455 1
e 455 456 1
e 457 458 1
e 458 459 1
e 459 480 1
e 459 460 1
e 460 481 1
e 460 461 1
e 461 462 1
e 462 463 1
e 463 464 1
e 464 465 1
e 465 466 1
e 466 467 1
e 467 468 1
e 468 469 1
e 469 470 1
e 471 482 1
e 471 472 1
e 472 483 1
e 472 473 1
e 473 484 1
e 473 474 1
e 474 485 1
e 474 475 1
e 475 486 1
e 475 476 1
e 476 487 1
e 476 477 1
e 477 488 1
e 477 478 1
e 478 489 1
e 478 479 1
e 479 490 1
e 480 491 1
e 480 481 1
e 481 492 1
e 482 483 1
e 483 493 1
e 483 484 1
e 484 494 1
e 484 485 1
e 485 495 1
e 485 486 1
e 486 496 1
e 486 487 1
e 487 497 1
e 487 488 1
e 488 498 1
e 488 489 1
e 489 499 1
e 489 490 1
e 490 500 1
e 491 501 1
e 491 492 1
e 492 502 1
e 493 504 1
e 493 494 1
e 494 505 1
e 494 495 1
e 495 506 1
e 495 496 1
e 496 507 1
e 496 497 1
e 497 508 1
e 497 498 1
e 498 509 1
e 498 499 1
e 499 510 1
e 499 500 1
e 500 511 1
e 501 514 1
e 501 502 1
e 502 515 1
e 502 503 1
e 503 516 1
e 504 518 1
e 504 505 1
e 505 519 1
e 505 506 1
e 506 520 1
e 506 507 1
e 507 521 1
e 507 508 1
e 508 522 1
e 508 509 1
e 509 523 1
e 509 510 1
e 510 524 1
e 510 511 1
e 511 525 1
e 512 530 1
e 512 513 1
e 513 531 1
e 513 514 1
e 514 532 1
e 514 515 1
e 515 533 1
e 515 516 1
e 516 534 1
e 516 517 1
e 517 535 1
e 518 538 1
e 518 519 1
e 519 539 1
e 519 520 1
e 520 540 1
e 520 521 1
e 521 541 1
e 521 522 1
e 522 542 1
e 522 523 1
e 523 543 1
e 523 524 1
e 524 544 1
e 524 525 1
e 525 545 1
e 525 526 1
e 526 546 1
e 526 527 1
e 528 547 1
e 528 529 1
e 529 548 1
e 529 530 1
e 530 549 1
e 530 531 1
e 531 550 1
e 531 532 1
e 532 551 1
e 532 533 1
e 533 552 1
e 533 534 1
e 534 553 1
e 534 535 1
e 535 554 1
e 535 536 1
e 536 555 1
e 536 537 1
e 537 556 1
e 538 562 1
e 538 539 1
e 539 563 1
e 539 540 1
e 540 564 1
e 540 541 1
e 541 565 1
e 541 542 1
e 542 566 1
e 542 543 1
e 543 567 1
e 543 544 1
e 544 568 1
e 544 545 1
e 545 569 1
e 545 546 1
e 546 570 1
e 547 575 1
e 547 548 1
e 548 576 1
e 548 549 1
e 549 577 1
e 549 550 1
e 550 578 1
e 550 551 1
e 551 579 1
e 551 552 1
e 552 580 1
e 552 553 1
e 553 581 1
e 553 554 1
e 554 582 1
e 554 555 1
e 555 583 1
e 555 556 1
e 556 584 1
e 556 557 1
e 557 585 1
e 557 558 1
e 558 586 1
e 558 559 1
e 559 587 1
e 559 560 1
e 560 588 1
e 560 561 1
e 561 589 1
e 562 590 1
e 562 563 1
e 563 591 1
e 563 564 1
e 564 592 1
e 564 565 1
e 565 593 1
e 565 566 1
e 566 594 1
e 566 567 1
e 567 595 1
e 567 568 1
e 568 596 1
e 568 569 1
e 569 597 1
e 569 570 1
e 570 598 1
e 571 601 1
e 571 572 1
e 572 602 1
e 572 573 1
e 573 603 1
e 573 574 1
e 574 604 1
e 574 575 1
e 575 605 1
e 575 576 1
e 576 606 1
e 576 577 1
e 577 607 1
e 577 578 1
e 578 608 1
e 578 579 1
e 579 609 1
e 579 580 1
e 580 610 1
e 580 581 1
e 581 611 1
e 581 582 1
e 582 612 1
e 582 583 1
e 583 613 1
e 583 584 1
e 584 614 1
e 584 585 1
e 585 615 1
e 585 586 1
e 586 616 1
e 586 587 1
e 587 617 1
e 587 588 1
e 588 618 1
e 588 589 1
e 589 619 1
e 590 620 1
e 590 591 1
e 591 621 1
e 591 592 1
e 592 622 1
e 592 593 1
e 593 623 1
e 593 594 1
e 594 624 1
e 594 595 1
e 595 625 1
e 595 596 1
e 596 626 1
e 596 597 1
e 597 627 1
e 597 598 1
e 598 628 1
e 598 599 1
e 599 629 1
e 600 630 1
e 601 632 1
e 601 602 1
e 602 633 1
e 602 603 1
e 603 634 1
e 603 604 1
e 604 635 1
e 604 605 1
e 605 636 1
e 605 606 1
e 606 637 1
e 606 607 1
e 607 638 1
e 607 608 1
e 608 639 1
e 608 609 1
e 609 640 1
e 609 610 1
e 610 641 1
e 610 611 1
e 611 642 1
e 611 612 1
e 612 643 1
e 612 613 1
e 613 644 1
e 613 614 1
e 614 645 1
e 614 615 1
e 615 646 1
e 615 616 1
e 616 647 1
e 616 617 1
e 617 648 1
e 617 618 1
e 618 649 1
e 618 619 1
e 619 650 1
e 620 651 1
e 620 621 1
e 621 652 1
e 621 622 1
e 622 653 1
e 622 623 1
e 623 654 1
e 623 624 1
e 624 655 1
e 624 625 1
e 625 656 1
e 625 626 1
e 626 657 1
e 626 627 1
e 627 658 1
e 627 628 1
e 628 659 1
e 628 629 1
e 629 660 1
e 630 631 1
e 631 661 1
e 631 632 1
e 632 662 1
e 632 633 1
e 633 663 1
e 633 634 1
e 634 664 1
e 634 635 1
e 635 665 1
e 635 636 1
e 636 666 1
e 636 637 1
e 637 667 1
e 637 638 1
e 638 668 1
e 638 639 1
e 639 669 1
e 639 640 1
e 640 670 1
e 640 641 1
e 641 671 1
e 641 642 1
e 642 672 1
e 642 643 1
e 643 673 1
e 643 644 1
e 644 674 1
e 644 645 1
e 645 675 1
e 645 646 1
e 646 676 1
e 646 647 1
e 647 677 1
e 647 648 1
e 648 678 1
e 648 649 1
e 649 679 1
e 649 650 1
e 650 680 1
e 651 681 1
e 651 652 1
e 652 682 1
e 652 653 1
e 653 683 1
e 653 654 1
e 654 684 1
e 654 655 1
e 655 685 1
e 655 656 1
e 656 686 1
e 656 657 1
e 657 687 1
e 657 658 1
e 658 688 1
e 658 659 1
e 659 689 1
e 659 660 1
e 660 690 1
e 661 662 1
e 662 663 1
e 663 664 1
e 664 665 1
e 665 666 1
e 666 693 1
e 666 667 1
e 667 694 1
e 667 668 1
e 668 695 1
e 668 669 1
e 669 696 1
e 669 670 1
e 670 697 1
e 670 671 1
e 671 698 1
e 671 672 1
e 672 699 1
e 672 673 1
e 673 700 1
e 673 674 1
e 674 701 1
e 674 675 1
e 675 702 1
e 675 676 1
e 676 703 1
e 676 677 1
e 677 704 1
e 677 678 1
e 678 705 1
e 678 679 1
e 679 706 1
e 679 680 1
e 680 707 1
e 681 709 1
e 681 682 1
e 682 710 1
e 682 683 1
e 683 711 1
e 683 684 1
e 684 712 1
e 684 685 1
e 685 713 1
e 685 686 1
e 686 714 1
e 686 687 1
e 687 715 1
e 687 688 1
e 688 716 1
e 688 689 1
e 689 717 1
e 689 690 1
e 690 718 1
e 690 691 1
e 691 719 1
e 691 692 1
e 692 720 1
e 693 721 1
e 693 694 1
e 694 722 1
e 694 695 1
e 695 723 1
e 695 696 1
e 696 724 1
e 696 697 1
e 697 725 1
e 697 698 1
e 698 726 1
e 698 699 1
e 699 727 1
e 699 700 1
e 700 728 1
e 700 701 1
e 701 729 1
e 701 702 1
e 702 730 1
e 702 703 1
e 703 731 1
e 703 704 1
e 704 732 1
e 704 705 1
e 705 733 1
e 705 706 1
e 706 734 1
e 706 707 1
e 707 735 1
e 708 736 1
e 708 709 1
e 709 737 1
e 709 710 1
e 710 738 1
e 710 711 1
e 711 739 1
e 711 712 1
e 712 740 1
e 712 713 1
e 713 741 1
e 713 714 1
e 714 742 1
e 714 715 1
e 715 743 1
e 715 716 1
e 716 744 1
e 716 717 1
e 717 745 1
e 717 718 1
e 718 746 1
e 718 719 1
e 719 747 1
e 719 720 1
e 720 748 1
e 721 750 1
e 721 722 1
e 722 751 1
e 722 723 1
e 723 752 1
e 723 724 1
e 724 753 1
e 724 725 1
e 725 754 1
e 725 726 1
e 726 755 1
e 726 727 1
e 727 756 1
e 727 728 1
e 728 757 1
e 728 729 1
e 729 758 1
e 729 730 1
e 730 759 1
e 730 731 1
e 731 760 1
e 731 732 1
e 732 761 1
e 732 733 1
e 733 762 1
e 733 734 1
e 734 763 1
e 734 735 1
e 735 764 1
e 736 768 1
e 736 737 1
e 737 769 1
e 737 738 1
e 738 770 1
e 738 739 1
e 739 771 1
e 739 740 1
e 740 772 1
e 740 741 1
e 741 773 1
e 741 742 1
e 742 774 1
e 742 743 1
e 743 775 1
e 743 744 1
e 744 776 1
e 744 745 1
e 745 777 1
e 745 746 1
e 746 778 1
e 746 747 1
e 747 779 1
e 747 748 1
e 748 780 1
e 748 749 1
e 749 781 1
e 750 782 1
e 750 751 1
e 751 783 1
e 751 752 1
e 752 784 1
e 752 753 1
e 753 785 1
e 753 754 1
e 754 786 1
e 754 755 1
e 755 787 1
e 755 756 1
e 756 788 1
e 756 757 1
e 757 789 1
e 757 758 1
e 758 790 1
e 758 759 1
e 759 791 1
e 759 760 1
e 760 792 1
e 760 761 1
e 761 793 1
e 761 762 1
e 762 794 1
e 762 763 1
e 763 795 1
e 763 764 1
e 764 796 1
e 764 765 1
e 765 797 1
e 765 766 1
e 766 798 1
e 766 767 1
e 767 799 1
e 767 768 1
e 768 800 1
e 768 769 1
e 769 801 1
e 769 770 1
e 770 802 1
e 770 771 1
e 771 803 1
e 771 772 1
e 772 804 1
e 772 773 1
e 773 805 1
e 773 774 1
e 774 806 1
e 774 775 1
e 775 807 1
e 775 776 1
e 776 777 1
e 777 778 1
e 778 808 1
e 778 779 1
e 779 809 1
e 779 780 1
e 780 810 1
e 780 781 1
e 781 811 1
e 782 812 1
e 782 783 1
e 783 813 1
e 783 784 1
e 784 814 1
e 784 785 1
e 785 815 1
e 785 786 1
e 786 816 1
e 786 787 1
e 787 817 1
e 787 788 1
e 788 818 1
e 788 789 1
e 789 819 1
e 789 790 1
e 790 820 1
e 790 791 1
e 791 821 1
e 791 792 1
e 792 822 1
e 792 793 1
e 793 823 1
e 793 794 1
e 794 824 1
e 794 795 1
e 795 825 1
e 795 796 1
e 796 826 1
e 796 797 1
e 797 827 1
e 797 798 1
e 798 828 1
e 798 799 1
e 799 829 1
e 799 800 1
e 800 830 1
e 800 801 1
e 801 831 1
e 801 802 1
e 802 832 1
e 802 803 1
e 803 833 1
e 803 804 1
e 804 834 1
e 804 805 1
e 805 835 1
e 805 806 1
e 806 836 1
e 806 807 1
e 808 809 1
e 809 810 1
e 810 811 1
e 812 813 1
e 813 837 1
e 813 814 1
e 814 838 1
e 814 815 1
e 815 839 1
e 815 816 1
e 816 840 1
e 816 817 1
e 817 841 1
e 817 818 1
e 818 842 1
e 818 819 1
e 819 843 1
e 819 820 1
e 820 844 1
e 820 821 1
e 821 822 1
e 822 823 1
e 823 824 1
e 824 825 1
e 825 826 1
e 826 827 1
e 827 828 1
e 828 829 1
e 829 830 1
e 830 845 1
e 830 831 1
e 831 846 1
e 831 832 1
e 832 847 1
e 832 833 1
e 833 848 1
e 833 834 1
e 834 849 1
e 834 835 1
e 835 850 1
e 835 836 1
e 836 851 1
e 837 838 1
e 838 839 1
e 839 840 1
e 840 841 1
e 841 842 1
e 842 843 1
e 843 844 1
e 845 846 1
e 846 847 1
e 847 848 1
e 848 849 1
e 849 850 1
e 850 851 1